
     Program PWSCF v.7.4 starts on  4Sep2026 at 18:16:24 

     This program is part of the open-source Quantum ESPRESSO suite
     for quantum simulation of materials; please cite
         "P. Giannozzi et al., J. Phys.:Condens. Matter 21 395502 (2009);
         "P. Giannozzi et al., J. Phys.:Condens. Matter 29 465901 (2017);
         "P. Giannozzi et al., J. Chem. Phys. 152 154105 (2020);
          URL http://www.quantum-espresso.org", 
     in publications or presentations arising from this work. More details at
     http://www.quantum-espresso.org/quote

     Parallel version (MPI & OpenMP), running on       1 processor cores
     Number of MPI processes:                 1
     Threads/MPI process:                     1

     MPI processes distributed on     1 nodes
     1206 MiB available memory on the printing compute node when the environment starts

     Reading input from scf.in
Warning: card &CELL ignored
Warning: card / ignored
Warning: card &FCP ignored
Warning: card / ignored
Warning: card &RISM ignored
Warning: card / ignored

     Current dimensions of program PWSCF are:
     Max number of different atomic species (ntypx) = 10
     Max number of k-points (npk) =  40000
     Max angular momentum in pseudopotentials (lmaxx) =  4
     Message from routine setup:
     using ibrav=0 with symmetry is DISCOURAGED, use correct ibrav instead

     Subspace diagonalization in iterative solution of the eigenvalue problem:
     a serial algorithm will be used


     G-vector sticks info
     --------------------
     sticks:   dense  smooth     PW     G-vecs:    dense   smooth      PW
     Sum         859     433    139                16625     5961    1067

     Using Slab Decomposition



     bravais-lattice index     =            0
     lattice parameter (alat)  =       7.2179  a.u.
     unit-cell volume          =     265.8971 (a.u.)^3
     number of atoms/cell      =            2
     number of atomic types    =            1
     number of electrons       =         8.00
     number of Kohn-Sham states=            4
     kinetic-energy cutoff     =      30.0000  Ry
     charge density cutoff     =     240.0000  Ry
     scf convergence threshold =      1.0E-08
     mixing beta               =       0.7000
     number of iterations used =            8  plain     mixing
     Exchange-correlation= PBE
                           (   1   4   3   4   0   0   0)

     celldm(1)=   7.217877  celldm(2)=   0.000000  celldm(3)=   0.000000
     celldm(4)=   0.000000  celldm(5)=   0.000000  celldm(6)=   0.000000

     crystal axes: (cart. coord. in units of alat)
               a(1) = (   1.000000   0.000000   0.000000 )  
               a(2) = (   0.500000   0.866025   0.000000 )  
               a(3) = (   0.500000   0.288675   0.816497 )  

     reciprocal axes: (cart. coord. in units 2 pi/alat)
               b(1) = (  1.000000 -0.577350 -0.408248 )  
               b(2) = (  0.000000  1.154701 -0.408248 )  
               b(3) = (  0.000000  0.000000  1.224745 )  


     PseudoPot. # 1 for Si read from file:
     /home/jorge/GITHUB/olla-dft-bench/results/20260904-180702/work/pp/Si.pbe-n-rrkjus_psl.1.0.0.UPF
     MD5 check sum: 0b0bb1205258b0d07b9f9672cf965d36
     Pseudo is Ultrasoft + core correction, Zval =  4.0
     Generated using "atomic" code by A. Dal Corso  v.5.1
     Using radial grid of 1141 points,  6 beta functions with: 
                l(1) =   0
                l(2) =   0
                l(3) =   1
                l(4) =   1
                l(5) =   2
                l(6) =   2
     Q(r) pseudized with 0 coefficients 


     atomic species   valence    mass     pseudopotential
     Si                4.00    28.08500     Si( 1.00)

     12 Sym. Ops., with inversion, found ( 6 have fractional translation)



   Cartesian axes

     site n.     atom                  positions (alat units)
         1        Si     tau(   1) = (   0.0000000   0.0000000   0.0000000  )
         2        Si     tau(   2) = (   0.5000000   0.2886751   0.2041241  )

     number of k points=    13
                       cart. coord. in units 2pi/alat
        k(    1) = (   0.0000000   0.0000000   0.0000000), wk =   0.0312500
        k(    2) = (   0.0000000   0.0000000   0.3061862), wk =   0.0625000
        k(    3) = (   0.0000000   0.0000000  -0.6123724), wk =   0.0312500
        k(    4) = (   0.0000000   0.2886751  -0.1020621), wk =   0.1875000
        k(    5) = (   0.0000000   0.2886751   0.2041241), wk =   0.1875000
        k(    6) = (   0.0000000   0.2886751  -0.7144345), wk =   0.1875000
        k(    7) = (   0.0000000   0.2886751  -0.4082483), wk =   0.1875000
        k(    8) = (   0.0000000  -0.5773503   0.2041241), wk =   0.0937500
        k(    9) = (   0.0000000  -0.5773503   0.5103104), wk =   0.1875000
        k(   10) = (   0.0000000  -0.5773503  -0.4082483), wk =   0.0937500
        k(   11) = (   0.2500000  -0.7216878   0.1020621), wk =   0.3750000
        k(   12) = (   0.2500000  -0.7216878   0.4082483), wk =   0.1875000
        k(   13) = (   0.2500000  -0.7216878  -0.2041241), wk =   0.1875000

     Dense  grid:    16625 G-vectors     FFT dimensions: (  36,  36,  36)

     Smooth grid:     5961 G-vectors     FFT dimensions: (  32,  32,  32)

     Estimated max dynamical RAM per process >      63.30 MB

     Initial potential from superposition of free atoms

     starting charge       7.9989, renormalised to       8.0000
     Starting wfcs are    8 randomized atomic wfcs

     total cpu time spent up to now is        0.7 secs

     per-process dynamical memory:    17.4 Mb

     Self-consistent Calculation

     iteration #  1     ecut=    30.00 Ry     beta= 0.70
     Davidson diagonalization with overlap
     ethr =  1.00E-02,  avg # of iterations =  2.0

     Threshold (ethr) on eigenvalues was too large:
     Diagonalizing with lowered threshold

     Davidson diagonalization with overlap
     ethr =  7.05E-04,  avg # of iterations =  1.4

     total cpu time spent up to now is        1.1 secs

     total energy              =     -22.82196467 Ry
     estimated scf accuracy    <       0.06112804 Ry

     iteration #  2     ecut=    30.00 Ry     beta= 0.70
     Davidson diagonalization with overlap
     ethr =  7.64E-04,  avg # of iterations =  1.0

     total cpu time spent up to now is        1.2 secs

     total energy              =     -22.82390742 Ry
     estimated scf accuracy    <       0.00320991 Ry

     iteration #  3     ecut=    30.00 Ry     beta= 0.70
     Davidson diagonalization with overlap
     ethr =  4.01E-05,  avg # of iterations =  2.8

     total cpu time spent up to now is        1.4 secs

     total energy              =     -22.82469502 Ry
     estimated scf accuracy    <       0.00011631 Ry

     iteration #  4     ecut=    30.00 Ry     beta= 0.70
     Davidson diagonalization with overlap
     ethr =  1.45E-06,  avg # of iterations =  3.5

     total cpu time spent up to now is        1.6 secs

     total energy              =     -22.82475974 Ry
     estimated scf accuracy    <       0.00001591 Ry

     iteration #  5     ecut=    30.00 Ry     beta= 0.70
     Davidson diagonalization with overlap
     ethr =  1.99E-07,  avg # of iterations =  3.3

     total cpu time spent up to now is        1.8 secs

     total energy              =     -22.82476665 Ry
     estimated scf accuracy    <       0.00000086 Ry

     iteration #  6     ecut=    30.00 Ry     beta= 0.70
     Davidson diagonalization with overlap
     ethr =  1.07E-08,  avg # of iterations =  4.6

     total cpu time spent up to now is        2.0 secs

     total energy              =     -22.82476708 Ry
     estimated scf accuracy    <       0.00000056 Ry

     iteration #  7     ecut=    30.00 Ry     beta= 0.70
     Davidson diagonalization with overlap
     ethr =  7.01E-09,  avg # of iterations =  1.5

     total cpu time spent up to now is        2.2 secs

     total energy              =     -22.82476713 Ry
     estimated scf accuracy    <       0.00000001 Ry

     iteration #  8     ecut=    30.00 Ry     beta= 0.70
     Davidson diagonalization with overlap
     ethr =  1.35E-10,  avg # of iterations =  5.6

     total cpu time spent up to now is        2.4 secs

     End of self-consistent calculation

          k = 0.0000 0.0000 0.0000 (   725 PWs)   bands (ev):

    -5.6665   6.4162   6.4162   6.4162

          k = 0.0000 0.0000 0.3062 (   745 PWs)   bands (ev):

    -4.8549   2.4501   5.6413   5.6413

          k = 0.0000 0.0000-0.6124 (   754 PWs)   bands (ev):

    -3.2915  -0.6428   5.1975   5.1975

          k = 0.0000 0.2887-0.1021 (   745 PWs)   bands (ev):

    -4.8549   2.4501   5.6413   5.6413

          k = 0.0000 0.2887 0.2041 (   729 PWs)   bands (ev):

    -4.5690   2.8986   4.4863   4.4863

          k = 0.0000 0.2887-0.7144 (   735 PWs)   bands (ev):

    -2.9045  -0.0189   2.8164   4.1680

          k = 0.0000 0.2887-0.4082 (   742 PWs)   bands (ev):

    -3.5906   0.8991   2.5871   5.0633

          k = 0.0000-0.5774 0.2041 (   754 PWs)   bands (ev):

    -3.2915  -0.6428   5.1975   5.1975

          k = 0.0000-0.5774 0.5103 (   735 PWs)   bands (ev):

    -2.9045  -0.0189   2.8164   4.1680

          k = 0.0000-0.5774-0.4082 (   740 PWs)   bands (ev):

    -1.4608  -1.4607   3.5095   3.5095

          k = 0.2500-0.7217 0.1021 (   735 PWs)   bands (ev):

    -2.9045  -0.0189   2.8164   4.1680

          k = 0.2500-0.7217 0.4082 (   742 PWs)   bands (ev):

    -3.5906   0.8991   2.5871   5.0633

          k = 0.2500-0.7217-0.2041 (   724 PWs)   bands (ev):

    -1.2885  -1.2885   2.4797   2.4797

     highest occupied level (ev):     6.4162

!    total energy              =     -22.82476715 Ry
     estimated scf accuracy    <          2.3E-10 Ry

     The total energy is the sum of the following terms:
     one-electron contribution =       5.29238325 Ry
     hartree contribution      =       1.11048607 Ry
     xc contribution           =     -12.34049395 Ry
     ewald contribution        =     -16.88714251 Ry

     convergence has been achieved in   8 iterations

     Forces acting on atoms (cartesian axes, Ry/au):

     atom    1 type  1   force =     0.00000000    0.00000000    0.00000138
     atom    2 type  1   force =     0.00000000    0.00000000   -0.00000138

     Total force =     0.000002     Total SCF correction =     0.000001
     SCF correction compared to forces is large: reduce conv_thr to get better values


     Computing stress (Cartesian axis) and pressure

          total   stress  (Ry/bohr**3)                   (kbar)     P=       42.66
   0.00028998  -0.00000000  -0.00000000           42.66       -0.00       -0.00
  -0.00000000   0.00028998  -0.00000000           -0.00       42.66       -0.00
  -0.00000000  -0.00000000   0.00029000           -0.00       -0.00       42.66


     Writing all to output data dir ./out/pwscf.save/ :
     XML data file, charge density, pseudopotentials, collected wavefunctions

     init_run     :      0.69s CPU      0.70s WALL (       1 calls)
     electrons    :      1.39s CPU      1.70s WALL (       1 calls)
     forces       :      0.07s CPU      0.09s WALL (       1 calls)
     stress       :      0.42s CPU      0.48s WALL (       1 calls)

     Called by init_run:
     wfcinit      :      0.14s CPU      0.14s WALL (       1 calls)
     potinit      :      0.16s CPU      0.16s WALL (       1 calls)
     hinit0       :      0.32s CPU      0.33s WALL (       1 calls)

     Called by electrons:
     c_bands      :      0.50s CPU      0.51s WALL (       9 calls)
     sum_band     :      0.46s CPU      0.64s WALL (       9 calls)
     v_of_rho     :      0.11s CPU      0.11s WALL (       9 calls)
     newd         :      0.37s CPU      0.50s WALL (       9 calls)
     mix_rho      :      0.01s CPU      0.01s WALL (       9 calls)

     Called by c_bands:
     init_us_2    :      0.04s CPU      0.04s WALL (     273 calls)
     cegterg      :      0.42s CPU      0.42s WALL (     117 calls)

     Called by *egterg:
     cdiaghg      :      0.01s CPU      0.01s WALL (     438 calls)
     h_psi        :      0.50s CPU      0.51s WALL (     464 calls)
     s_psi        :      0.01s CPU      0.01s WALL (     464 calls)
     g_psi        :      0.00s CPU      0.00s WALL (     334 calls)

     Called by h_psi:
     h_psi:calbec :      0.02s CPU      0.02s WALL (     464 calls)
     vloc_psi     :      0.46s CPU      0.47s WALL (     464 calls)
     add_vuspsi   :      0.02s CPU      0.02s WALL (     464 calls)

     General routines
     calbec       :      0.03s CPU      0.03s WALL (     802 calls)
     fft          :      0.21s CPU      0.21s WALL (     141 calls)
     ffts         :      0.13s CPU      0.13s WALL (      18 calls)
     fftw         :      0.43s CPU      0.43s WALL (    3622 calls)
     interpolate  :      0.13s CPU      0.13s WALL (       9 calls)

     Parallel routines

     PWSCF        :      2.62s CPU      3.03s WALL


   This run was terminated on:  18:16:27   4Sep2026            

=------------------------------------------------------------------------------=
   JOB DONE.
=------------------------------------------------------------------------------=
