
     Program PWSCF v.7.4 starts on  4Sep2026 at 18:16:34 

     This program is part of the open-source Quantum ESPRESSO suite
     for quantum simulation of materials; please cite
         "P. Giannozzi et al., J. Phys.:Condens. Matter 21 395502 (2009);
         "P. Giannozzi et al., J. Phys.:Condens. Matter 29 465901 (2017);
         "P. Giannozzi et al., J. Chem. Phys. 152 154105 (2020);
          URL http://www.quantum-espresso.org", 
     in publications or presentations arising from this work. More details at
     http://www.quantum-espresso.org/quote

     Parallel version (MPI & OpenMP), running on       1 processor cores
     Number of MPI processes:                 1
     Threads/MPI process:                     1

     MPI processes distributed on     1 nodes
     1168 MiB available memory on the printing compute node when the environment starts

     Reading input from scf.in
Warning: card &CELL ignored
Warning: card / ignored

     Current dimensions of program PWSCF are:
     Max number of different atomic species (ntypx) = 10
     Max number of k-points (npk) =  40000
     Max angular momentum in pseudopotentials (lmaxx) =  4
     Message from routine setup:
     using ibrav=0 with symmetry is DISCOURAGED, use correct ibrav instead

     Subspace diagonalization in iterative solution of the eigenvalue problem:
     a serial algorithm will be used


     G-vector sticks info
     --------------------
     sticks:   dense  smooth     PW     G-vecs:    dense   smooth      PW
     Sum         859     433    139                16625     5961    1067

     Using Slab Decomposition



     bravais-lattice index     =            0
     lattice parameter (alat)  =       7.2179  a.u.
     unit-cell volume          =     265.8970 (a.u.)^3
     number of atoms/cell      =            2
     number of atomic types    =            1
     number of electrons       =         8.00
     number of Kohn-Sham states=            4
     kinetic-energy cutoff     =      30.0000  Ry
     charge density cutoff     =     240.0000  Ry
     scf convergence threshold =      1.0E-08
     mixing beta               =       0.7000
     number of iterations used =            8  plain     mixing
     Exchange-correlation= PBE
                           (   1   4   3   4   0   0   0)

     celldm(1)=   7.217877  celldm(2)=   0.000000  celldm(3)=   0.000000
     celldm(4)=   0.000000  celldm(5)=   0.000000  celldm(6)=   0.000000

     crystal axes: (cart. coord. in units of alat)
               a(1) = (   0.866025   0.000000   0.500000 )  
               a(2) = (   0.288675   0.816497   0.500000 )  
               a(3) = (   0.000000   0.000000   1.000000 )  

     reciprocal axes: (cart. coord. in units 2 pi/alat)
               b(1) = (  1.154701 -0.408248  0.000000 )  
               b(2) = (  0.000000  1.224745  0.000000 )  
               b(3) = ( -0.577350 -0.408248  1.000000 )  


     PseudoPot. # 1 for Si read from file:
     /home/jorge/GITHUB/olla-dft-bench/results/20260904-180702/work/pp/Si.pbe-n-rrkjus_psl.1.0.0.UPF
     MD5 check sum: 0b0bb1205258b0d07b9f9672cf965d36
     Pseudo is Ultrasoft + core correction, Zval =  4.0
     Generated using "atomic" code by A. Dal Corso  v.5.1
     Using radial grid of 1141 points,  6 beta functions with: 
                l(1) =   0
                l(2) =   0
                l(3) =   1
                l(4) =   1
                l(5) =   2
                l(6) =   2
     Q(r) pseudized with 0 coefficients 


     atomic species   valence    mass     pseudopotential
     Si                4.00    28.08550     Si( 1.00)

      4 Sym. Ops., with inversion, found ( 2 have fractional translation)



   Cartesian axes

     site n.     atom                  positions (alat units)
         1        Si     tau(   1) = (   0.0000000   0.0000000   0.0000000  )
         2        Si     tau(   2) = (   0.2886751   0.2041241   0.5000000  )

     number of k points=    24
                       cart. coord. in units 2pi/alat
        k(    1) = (   0.0000000   0.0000000   0.0000000), wk =   0.0312500
        k(    2) = (  -0.1443376  -0.1020621   0.2500000), wk =   0.1250000
        k(    3) = (   0.2886751   0.2041241  -0.5000000), wk =   0.0625000
        k(    4) = (   0.0000000   0.3061862   0.0000000), wk =   0.0625000
        k(    5) = (  -0.1443376   0.2041241   0.2500000), wk =   0.1250000
        k(    6) = (   0.2886751   0.5103104  -0.5000000), wk =   0.1250000
        k(    7) = (   0.1443376   0.4082483  -0.2500000), wk =   0.1250000
        k(    8) = (   0.0000000  -0.6123724   0.0000000), wk =   0.0312500
        k(    9) = (  -0.1443376  -0.7144345   0.2500000), wk =   0.1250000
        k(   10) = (   0.2886751  -0.4082483  -0.5000000), wk =   0.0625000
        k(   11) = (   0.2886751  -0.1020621   0.0000000), wk =   0.0625000
        k(   12) = (   0.5773503   0.1020621  -0.5000000), wk =   0.1250000
        k(   13) = (   0.4330127   0.0000000  -0.2500000), wk =   0.1250000
        k(   14) = (   0.2886751   0.2041241   0.0000000), wk =   0.0625000
        k(   15) = (   0.5773503   0.4082483  -0.5000000), wk =   0.0625000
        k(   16) = (   0.4330127   0.3061862  -0.2500000), wk =   0.1250000
        k(   17) = (   0.2886751  -0.7144345   0.0000000), wk =   0.0625000
        k(   18) = (   0.4330127  -0.6123724  -0.2500000), wk =   0.1250000
        k(   19) = (   0.2886751  -0.4082483   0.0000000), wk =   0.0625000
        k(   20) = (   0.5773503  -0.2041241  -0.5000000), wk =   0.0625000
        k(   21) = (   0.4330127  -0.3061862  -0.2500000), wk =   0.1250000
        k(   22) = (  -0.5773503   0.2041241   0.0000000), wk =   0.0312500
        k(   23) = (  -0.5773503   0.5103104   0.0000000), wk =   0.0625000
        k(   24) = (  -0.5773503  -0.4082483   0.0000000), wk =   0.0312500

     Dense  grid:    16625 G-vectors     FFT dimensions: (  36,  36,  36)

     Smooth grid:     5961 G-vectors     FFT dimensions: (  32,  32,  32)

     Estimated max dynamical RAM per process >      63.80 MB

     Initial potential from superposition of free atoms

     starting charge       7.9989, renormalised to       8.0000
     Starting wfcs are    8 randomized atomic wfcs

     total cpu time spent up to now is        1.1 secs

     per-process dynamical memory:    17.5 Mb

     Self-consistent Calculation

     iteration #  1     ecut=    30.00 Ry     beta= 0.70
     Davidson diagonalization with overlap
     ethr =  1.00E-02,  avg # of iterations =  2.0

     Threshold (ethr) on eigenvalues was too large:
     Diagonalizing with lowered threshold

     Davidson diagonalization with overlap
     ethr =  7.03E-04,  avg # of iterations =  1.4

     total cpu time spent up to now is        1.5 secs

     total energy              =     -22.82197017 Ry
     estimated scf accuracy    <       0.06113489 Ry

     iteration #  2     ecut=    30.00 Ry     beta= 0.70
     Davidson diagonalization with overlap
     ethr =  7.64E-04,  avg # of iterations =  1.0

     total cpu time spent up to now is        1.8 secs

     total energy              =     -22.82390776 Ry
     estimated scf accuracy    <       0.00321471 Ry

     iteration #  3     ecut=    30.00 Ry     beta= 0.70
     Davidson diagonalization with overlap
     ethr =  4.02E-05,  avg # of iterations =  2.8

     total cpu time spent up to now is        2.0 secs

     total energy              =     -22.82470184 Ry
     estimated scf accuracy    <       0.00012300 Ry

     iteration #  4     ecut=    30.00 Ry     beta= 0.70
     Davidson diagonalization with overlap
     ethr =  1.54E-06,  avg # of iterations =  3.2

     total cpu time spent up to now is        2.3 secs

     total energy              =     -22.82475867 Ry
     estimated scf accuracy    <       0.00002319 Ry

     iteration #  5     ecut=    30.00 Ry     beta= 0.70
     Davidson diagonalization with overlap
     ethr =  2.90E-07,  avg # of iterations =  2.8

     total cpu time spent up to now is        2.5 secs

     total energy              =     -22.82476618 Ry
     estimated scf accuracy    <       0.00000071 Ry

     iteration #  6     ecut=    30.00 Ry     beta= 0.70
     Davidson diagonalization with overlap
     ethr =  8.84E-09,  avg # of iterations =  5.7

     total cpu time spent up to now is        3.3 secs

     total energy              =     -22.82476708 Ry
     estimated scf accuracy    <       0.00000015 Ry

     iteration #  7     ecut=    30.00 Ry     beta= 0.70
     Davidson diagonalization with overlap
     ethr =  1.92E-09,  avg # of iterations =  2.5

     total cpu time spent up to now is        3.8 secs

     End of self-consistent calculation

          k = 0.0000 0.0000 0.0000 (   725 PWs)   bands (ev):

    -5.6664   6.4163   6.4164   6.4164

          k =-0.1443-0.1021 0.2500 (   745 PWs)   bands (ev):

    -4.8548   2.4502   5.6415   5.6415

          k = 0.2887 0.2041-0.5000 (   754 PWs)   bands (ev):

    -3.2914  -0.6427   5.1976   5.1976

          k = 0.0000 0.3062 0.0000 (   745 PWs)   bands (ev):

    -4.8548   2.4502   5.6415   5.6415

          k =-0.1443 0.2041 0.2500 (   729 PWs)   bands (ev):

    -4.5689   2.8988   4.4864   4.4864

          k = 0.2887 0.5103-0.5000 (   735 PWs)   bands (ev):

    -2.9044  -0.0188   2.8165   4.1681

          k = 0.1443 0.4082-0.2500 (   742 PWs)   bands (ev):

    -3.5905   0.8992   2.5872   5.0634

          k = 0.0000-0.6124 0.0000 (   754 PWs)   bands (ev):

    -3.2914  -0.6427   5.1976   5.1976

          k =-0.1443-0.7144 0.2500 (   735 PWs)   bands (ev):

    -2.9044  -0.0188   2.8165   4.1681

          k = 0.2887-0.4082-0.5000 (   740 PWs)   bands (ev):

    -1.4606  -1.4606   3.5096   3.5096

          k = 0.2887-0.1021 0.0000 (   745 PWs)   bands (ev):

    -4.8548   2.4502   5.6415   5.6415

          k = 0.5774 0.1021-0.5000 (   735 PWs)   bands (ev):

    -2.9044  -0.0187   2.8165   4.1681

          k = 0.4330 0.0000-0.2500 (   742 PWs)   bands (ev):

    -3.5905   0.8992   2.5872   5.0634

          k = 0.2887 0.2041 0.0000 (   729 PWs)   bands (ev):

    -4.5689   2.8988   4.4864   4.4864

          k = 0.5774 0.4082-0.5000 (   742 PWs)   bands (ev):

    -3.5905   0.8992   2.5872   5.0634

          k = 0.4330 0.3062-0.2500 (   735 PWs)   bands (ev):

    -2.9044  -0.0188   2.8165   4.1681

          k = 0.2887-0.7144 0.0000 (   735 PWs)   bands (ev):

    -2.9044  -0.0187   2.8165   4.1681

          k = 0.4330-0.6124-0.2500 (   724 PWs)   bands (ev):

    -1.2884  -1.2883   2.4798   2.4798

          k = 0.2887-0.4082 0.0000 (   742 PWs)   bands (ev):

    -3.5905   0.8992   2.5872   5.0634

          k = 0.5774-0.2041-0.5000 (   724 PWs)   bands (ev):

    -1.2884  -1.2883   2.4798   2.4798

          k = 0.4330-0.3062-0.2500 (   735 PWs)   bands (ev):

    -2.9044  -0.0188   2.8165   4.1681

          k =-0.5774 0.2041 0.0000 (   754 PWs)   bands (ev):

    -3.2914  -0.6427   5.1976   5.1976

          k =-0.5774 0.5103 0.0000 (   735 PWs)   bands (ev):

    -2.9044  -0.0188   2.8165   4.1681

          k =-0.5774-0.4082 0.0000 (   740 PWs)   bands (ev):

    -1.4606  -1.4606   3.5096   3.5096

     highest occupied level (ev):     6.4164

!    total energy              =     -22.82476712 Ry
     estimated scf accuracy    <          1.7E-09 Ry

     The total energy is the sum of the following terms:
     one-electron contribution =       5.29237774 Ry
     hartree contribution      =       1.11050125 Ry
     xc contribution           =     -12.34050189 Ry
     ewald contribution        =     -16.88714423 Ry

     convergence has been achieved in   7 iterations

     Forces acting on atoms (cartesian axes, Ry/au):

     atom    1 type  1   force =     0.00000235   -0.00000143    0.00000000
     atom    2 type  1   force =    -0.00000235    0.00000143    0.00000000

     Total force =     0.000004     Total SCF correction =     0.000001
     SCF correction compared to forces is large: reduce conv_thr to get better values


     Computing stress (Cartesian axis) and pressure

          total   stress  (Ry/bohr**3)                   (kbar)     P=       42.67
   0.00029010  -0.00000003   0.00000000           42.67       -0.00        0.00
  -0.00000003   0.00028999   0.00000000           -0.00       42.66        0.00
   0.00000000   0.00000000   0.00029004            0.00        0.00       42.67


     Writing all to output data dir ./out/pwscf.save/ :
     XML data file, charge density, pseudopotentials, collected wavefunctions

     init_run     :      0.92s CPU      0.95s WALL (       1 calls)
     electrons    :      2.36s CPU      2.77s WALL (       1 calls)
     forces       :      0.19s CPU      0.23s WALL (       1 calls)
     stress       :      0.86s CPU      0.98s WALL (       1 calls)

     Called by init_run:
     wfcinit      :      0.16s CPU      0.17s WALL (       1 calls)
     potinit      :      0.15s CPU      0.15s WALL (       1 calls)
     hinit0       :      0.54s CPU      0.55s WALL (       1 calls)

     Called by electrons:
     c_bands      :      1.15s CPU      1.18s WALL (       8 calls)
     sum_band     :      0.67s CPU      0.88s WALL (       8 calls)
     v_of_rho     :      0.13s CPU      0.14s WALL (       8 calls)
     newd         :      0.46s CPU      0.64s WALL (       8 calls)
     mix_rho      :      0.01s CPU      0.01s WALL (       8 calls)

     Called by c_bands:
     init_us_2    :      0.10s CPU      0.11s WALL (     456 calls)
     cegterg      :      0.96s CPU      0.98s WALL (     192 calls)

     Called by *egterg:
     cdiaghg      :      0.03s CPU      0.03s WALL (     680 calls)
     h_psi        :      0.98s CPU      1.00s WALL (     728 calls)
     s_psi        :      0.03s CPU      0.03s WALL (     728 calls)
     g_psi        :      0.01s CPU      0.01s WALL (     512 calls)

     Called by h_psi:
     h_psi:calbec :      0.05s CPU      0.05s WALL (     728 calls)
     vloc_psi     :      0.90s CPU      0.91s WALL (     728 calls)
     add_vuspsi   :      0.04s CPU      0.04s WALL (     728 calls)

     General routines
     calbec       :      0.10s CPU      0.10s WALL (    1328 calls)
     fft          :      0.22s CPU      0.23s WALL (     128 calls)
     ffts         :      0.12s CPU      0.12s WALL (      16 calls)
     fftw         :      0.82s CPU      0.83s WALL (    5894 calls)
     interpolate  :      0.12s CPU      0.12s WALL (       8 calls)

     Parallel routines

     PWSCF        :      4.46s CPU      5.08s WALL


   This run was terminated on:  18:16:39   4Sep2026            

=------------------------------------------------------------------------------=
   JOB DONE.
=------------------------------------------------------------------------------=
